NAME : ulysses16.9956.tour
COMMENT : Cost = 4628_9956
COMMENT : Found by LKH [Keld Helsgaun] Thu Nov 16 17:47:04 2017
TYPE : TOUR
DIMENSION : 20
TOUR_SECTION
1
8
20
11
19
2
3
18
4
17
16
14
13
12
10
9
7
6
5
15
-1
EOF
